<number of tasks>
250

<cycle time>
1000

<order strength>
0.596


<task times>
1 132
2 174
3 283
4 233
5 152
6 209
7 103
8 85
9 64
10 41
11 212
12 159
13 298
14 33
15 24
16 72
17 265
18 87
19 40
20 144
21 171
22 267
23 234
24 42
25 232
26 201
27 272
28 91
29 113
30 184
31 224
32 143
33 273
34 50
35 216
36 166
37 74
38 97
39 154
40 88
41 42
42 115
43 78
44 99
45 171
46 223
47 93
48 225
49 288
50 61
51 223
52 32
53 224
54 68
55 207
56 166
57 129
58 144
59 243
60 46
61 107
62 210
63 109
64 241
65 201
66 80
67 230
68 329
69 296
70 147
71 229
72 77
73 193
74 27
75 123
76 96
77 59
78 159
79 59
80 50
81 113
82 344
83 68
84 268
85 164
86 155
87 39
88 164
89 193
90 137
91 63
92 293
93 221
94 105
95 99
96 94
97 64
98 68
99 151
100 44
101 44
102 133
103 237
104 130
105 146
106 91
107 222
108 138
109 32
110 28
111 289
112 151
113 168
114 155
115 221
116 22
117 127
118 113
119 113
120 105
121 235
122 250
123 346
124 201
125 35
126 86
127 97
128 91
129 43
130 84
131 162
132 143
133 264
134 50
135 104
136 251
137 163
138 145
139 34
140 31
141 83
142 76
143 72
144 246
145 245
146 126
147 201
148 31
149 169
150 104
151 44
152 141
153 165
154 67
155 239
156 257
157 169
158 114
159 34
160 88
161 221
162 164
163 165
164 148
165 155
166 140
167 230
168 36
169 319
170 248
171 119
172 108
173 106
174 192
175 38
176 52
177 91
178 269
179 68
180 59
181 106
182 74
183 282
184 262
185 202
186 214
187 244
188 48
189 148
190 199
191 114
192 142
193 170
194 96
195 132
196 283
197 79
198 146
199 36
200 145
201 87
202 109
203 56
204 223
205 31
206 76
207 239
208 87
209 126
210 167
211 183
212 252
213 65
214 251
215 203
216 111
217 139
218 94
219 102
220 256
221 33
222 70
223 90
224 136
225 71
226 27
227 230
228 189
229 154
230 70
231 170
232 101
233 100
234 153
235 210
236 50
237 254
238 215
239 29
240 238
241 84
242 191
243 81
244 140
245 147
246 221
247 66
248 137
249 338
250 190

<precedence relations>
1,37
2,37
3,37
4,37
5,37
6,51
7,51
8,51
9,77
10,110
11,110
12,110
13,14
13,15
13,16
13,17
13,18
13,19
13,20
13,21
13,22
13,23
13,24
13,25
14,37
15,37
16,37
17,37
18,37
19,37
20,37
21,127
22,127
23,77
24,110
25,26
25,27
25,28
25,29
25,30
25,31
25,32
25,33
25,34
25,35
25,36
26,37
27,37
28,37
29,37
30,37
31,206
32,140
33,77
34,110
35,97
36,38
36,39
36,40
36,41
36,42
36,43
36,44
36,45
36,46
36,78
37,47
37,48
37,49
37,50
38,51
39,51
40,127
41,140
42,164
43,53
43,70
44,51
44,52
44,82
46,51
46,52
47,210
48,127
49,59
49,60
49,65
50,120
50,126
50,127
51,54
51,55
51,56
51,57
51,58
51,59
51,76
52,97
53,99
54,210
55,140
56,228
57,161
58,63
58,65
58,75
59,140
60,61
60,62
60,64
61,140
62,97
63,161
64,66
64,68
64,69
64,70
64,72
64,74
64,75
65,67
65,71
65,73
65,84
66,77
67,77
68,110
69,110
70,110
71,110
72,228
73,97
74,76
74,78
74,79
74,82
75,80
75,81
75,83
76,127
77,85
77,86
77,87
77,88
77,89
77,90
77,91
77,92
77,93
77,94
77,95
77,96
77,98
78,164
79,164
80,97
81,84
82,84
82,137
83,216
84,140
85,119
86,126
87,108
87,139
89,99
89,142
90,152
90,173
92,105
93,121
93,128
94,99
94,109
95,173
96,105
97,99
97,100
97,101
97,102
97,103
97,104
97,105
97,106
98,99
98,100
99,140
100,110
102,129
102,149
102,153
103,107
103,108
103,109
103,120
103,121
103,122
103,123
104,112
105,107
105,109
105,113
105,114
106,111
106,130
106,141
107,210
108,127
109,140
110,115
110,116
110,117
110,118
111,187
112,161
113,119
114,123
115,120
115,121
116,120
116,149
117,120
118,124
119,122
119,123
120,206
121,127
122,126
123,124
123,125
124,127
125,140
126,128
126,129
126,130
127,131
127,132
127,133
127,134
127,135
127,136
128,187
130,137
130,138
130,139
132,141
133,140
133,142
134,197
134,250
135,164
137,140
138,142
138,209
140,143
140,144
140,145
140,146
140,147
140,148
140,149
140,150
141,187
144,165
144,205
144,206
145,152
146,161
146,162
146,163
146,196
148,151
148,152
148,162
150,153
151,206
152,187
153,154
153,155
153,156
153,157
153,158
153,159
154,161
155,161
156,161
157,163
158,161
159,160
159,161
159,162
159,165
160,164
161,166
161,167
161,168
161,169
161,170
161,171
161,172
162,173
163,165
164,174
164,175
164,176
164,177
164,178
164,179
164,180
164,181
164,182
164,183
164,184
164,185
164,186
165,187
167,227
167,232
168,204
168,216
169,232
171,188
175,228
179,202
179,203
179,204
180,198
180,233
181,196
181,200
182,196
183,210
183,226
186,197
187,189
187,190
187,191
187,192
187,193
187,194
187,195
188,198
188,200
189,208
190,199
190,210
192,209
195,200
195,250
196,201
199,228
200,228
201,202
201,203
201,204
202,206
203,206
204,205
204,207
204,208
204,209
205,210
206,211
206,212
206,213
206,214
206,215
206,216
207,228
210,217
210,218
210,219
210,220
210,221
210,222
210,223
210,224
210,225
211,226
211,250
212,232
213,226
216,227
218,250
219,233
221,234
222,230
224,229
224,231
225,232
226,228
227,233
228,235
228,236
228,237
228,238
228,239
228,240
228,241
228,242
228,243
228,244
228,245
228,246
228,247
228,248
228,249
234,250

<end>
